50
    1   251   239
    2   508   555
    3   324   345
    4   176   122
    5   542   515
    6   403   369
    7   361   332
    8   320   371
    9   392   364
   10   435   433
   11   419   443
   12   478   450
   13   113   171
   14   333   283
   15   633   580
   16   570   516
   17   190   188
   18   203   199
   19   533   576
   20   581   549
   21   382   372
   22   540   487
   23   548   579
   24   381   390
   25    85   100
   26   285   303
   27     1     1
   28   215   199
   29   139   165
   30   380   398
   31   188   129
   32   517   499
   33   379   387
   34    38    44
   35   189   211
   36   289   280
   37   538   555
   38    12    52
   39   427   443
   40    59    78
   41   329   350
   42   453   497
   43   126   101
   44   198   205
   45   103   126
   46   334   282
   47   566   521
   48   213   193
   49    80    62
   50   214   239
601
